results_rootrelaxation/bin018_080_032.srr.sol
solution status: optimal solution found
objective value:                     20.2604207607002
_var2831_                           0.269216043322596 	(obj:1)
_var2842_                           0.206460005214406 	(obj:2)
_var2974_                           0.179357908877263 	(obj:1)
_var3117_                         0.00375369172372619 	(obj:0)
_var3128_                           0.054650170783717 	(obj:0)
_var3149_                          0.0643107753727101 	(obj:1)
_var3165_                         0.00175753222427449 	(obj:2)
_var3168_                          0.0197807631020039 	(obj:1)
_var3205_                          0.0864943923071281 	(obj:0)
_var3220_                          0.0323435599466566 	(obj:2)
_var3223_                           0.413623294806064 	(obj:2)
_var3266_                           0.200707963509203 	(obj:1)
_var3269_                          0.0720989971931393 	(obj:0)
_var3294_                           0.105914689621583 	(obj:3)
_var3296_                           0.237011117443424 	(obj:2)
_var3298_                           0.241959188092802 	(obj:2)
_var3303_                          0.0226938151977671 	(obj:1)
_var3304_                         0.00396961418940485 	(obj:2)
_var3305_                          0.0521182147056382 	(obj:2)
_var3307_                           0.143101937592074 	(obj:1)
_var3309_                           0.284303821803411 	(obj:1)
_var3315_                           0.259746183294896 	(obj:0)
_var3322_                           0.193283189494075 	(obj:2)
_var3334_                           0.199628215919025 	(obj:1)
_var3344_                           0.235375863332718 	(obj:0)
_var3349_                            0.20479608530206 	(obj:1)
_var3354_                           0.388762170601391 	(obj:0)
_var3357_                           0.335194979744633 	(obj:2)
_var3361_                             0.3255194741971 	(obj:1)
_var3368_                          0.0946425972837546 	(obj:1)
_var3369_                           0.372151991412121 	(obj:2)
_var3371_                          0.0201992399303128 	(obj:0)
_var3374_                          0.0815081601323404 	(obj:1)
_var3376_                           0.133678689239075 	(obj:2)
_var3388_                           0.397022790985317 	(obj:0)
_var3393_                            0.15970188092129 	(obj:3)
_var3406_                           0.108704352849917 	(obj:1)
_var3407_                          0.0704099195811703 	(obj:2)
_var3421_                           0.310552743538313 	(obj:0)
_var3425_                            0.10960990931512 	(obj:2)
_var3428_                           0.156721249864998 	(obj:1)
_var3435_                           0.297965570216078 	(obj:0)
_var3437_                          0.0130366318050237 	(obj:2)
_var3438_                           0.196661566378479 	(obj:0)
_var3441_                          0.0261066546172077 	(obj:2)
_var3442_                            0.12191680128984 	(obj:1)
_var3443_                           0.373984113982267 	(obj:0)
_var3445_                         0.00987346734582582 	(obj:1)
_var3446_                          0.0282132880929852 	(obj:0)
_var3452_                           0.213667764862155 	(obj:1)
_var3454_                           0.206040519585923 	(obj:1)
_var3458_                           0.226346079514954 	(obj:2)
_var3462_                           0.219496637019428 	(obj:1)
_var3467_                           0.272225225546057 	(obj:1)
_var3469_                          0.0439630700325153 	(obj:1)
_var3470_                          0.0661833931588226 	(obj:1)
_var3474_                           0.186259756483919 	(obj:1)
_var3475_                           0.193785892810799 	(obj:1)
_var3476_                          0.0293838294751524 	(obj:2)
_var3480_                           0.189852952012306 	(obj:1)
_var3482_                          0.0396623562602187 	(obj:1)
_var3483_                           0.412240905638553 	(obj:2)
_var3494_                            0.12191680128984 	(obj:1)
_var3498_                           0.152392808924135 	(obj:2)
_var3502_                         0.00871225396267178 	(obj:1)
_var3503_                           0.370836834173821 	(obj:1)
_var3504_                         0.00689490571210733 	(obj:1)
_var3505_                           0.200553319758258 	(obj:2)
_var3506_                         0.00815800647684867 	(obj:1)
_var3508_                           0.216743973078607 	(obj:1)
_var3513_                           0.091781103813224 	(obj:1)
_var3516_                           0.114750530356753 	(obj:1)
_var3521_                            0.19323324851668 	(obj:1)
_var3526_                          0.0723388207753458 	(obj:2)
_var3528_                         0.00528671150609585 	(obj:0)
_var3530_                          0.0999864231286905 	(obj:1)
_var3531_                          0.0996543498291616 	(obj:1)
_var3539_                           0.139367478420255 	(obj:1)
_var3541_                           0.189913750716289 	(obj:1)
_var3545_                          0.0326713448520455 	(obj:3)
_var3548_                            0.21952623748082 	(obj:2)
_var3549_                           0.105833811203424 	(obj:1)
_var3553_                          0.0243287341971214 	(obj:1)
_var3554_                           0.101575943245371 	(obj:1)
_var3560_                          0.0608983184908454 	(obj:1)
_var3563_                          0.0286236539412284 	(obj:0)
_var3564_                          0.0754412501035936 	(obj:2)
_var3565_                           0.128790415594765 	(obj:1)
_var3566_                         0.00938540114240743 	(obj:2)
_var3567_                           0.252546575290315 	(obj:1)
_var3568_                          0.0709682876518373 	(obj:1)
_var3569_                          0.0242775483875144 	(obj:0)
_var3572_                           0.109894410411332 	(obj:1)
_var3573_                          0.0421604185795614 	(obj:0)
_var3574_                          0.0746686227814922 	(obj:2)
_var3578_                          0.0394458023750941 	(obj:1)
_var3579_                          0.0888002778952149 	(obj:1)
_var3580_                           0.119832416621922 	(obj:2)
_var3581_                           0.219496637019424 	(obj:1)
_var3582_                           0.020766891870781 	(obj:2)
_var3584_                          0.0437062683761671 	(obj:1)
_var3586_                          0.0624283594679055 	(obj:1)
_var3588_                          0.0371621150406978 	(obj:2)
_var3590_                           0.143101937592074 	(obj:2)
_var3592_                           0.326892597247946 	(obj:2)
_var3594_                         0.00627700777866883 	(obj:2)
_var3595_                           0.151276586609008 	(obj:2)
_var3596_                           0.115461562535849 	(obj:1)
_var3597_                          0.0129900465063838 	(obj:0)
_var3600_                          0.0570625675125112 	(obj:1)
_var3601_                            0.14139469100943 	(obj:1)
_var3604_                          0.0537726406695135 	(obj:2)
_var3605_                          0.0572543893503286 	(obj:1)
_var3606_                          0.0347753678576248 	(obj:1)
_var3610_                           0.103015100650342 	(obj:1)
_var3612_                          0.0259847550678974 	(obj:1)
_var3613_                          0.0548107840652104 	(obj:0)
_var3615_                           0.155726676864656 	(obj:1)
_var3624_                           0.053477819681808 	(obj:0)
_var3625_                          0.0961055535134545 	(obj:2)
_var3628_                          0.0113810108022434 	(obj:3)
_var3629_                          0.0411371052989948 	(obj:1)
_var3630_                         0.00396014069928513 	(obj:1)
_var3632_                          0.0393789084315437 	(obj:1)
_var3633_                            0.13442971768678 	(obj:2)
_var3635_                          0.0119704316244117 	(obj:1)
_var3636_                          0.0294935253573764 	(obj:1)
_var3639_                           0.134714169158806 	(obj:1)
_var3640_                           0.110484448027813 	(obj:2)
_var3641_                          0.0572543893503286 	(obj:3)
_var3644_                          0.0273930443538375 	(obj:3)
_var3646_                           0.101099046885412 	(obj:1)
_var3647_                          0.0694045104115731 	(obj:3)
_var3648_                          0.0351857443577406 	(obj:1)
_var3649_                          0.0297979931395077 	(obj:2)
_var3650_                         0.00382916761239427 	(obj:1)
_var3652_                          0.0521535699692876 	(obj:1)
_var3653_                          0.0046251066473183 	(obj:1)
_var3655_                          0.0705717931654387 	(obj:2)
_var3656_                          0.0776695896196347 	(obj:1)
_var3660_                           0.024676156763857 	(obj:2)
_var3662_                          0.0291640851844503 	(obj:2)
_var3663_                         0.00539153838246666 	(obj:3)
